p cnf 87 420
35 -47 0
34 -2 0
-47 33 0
57 -68 0
2 3 -34 0
34 -3 0
66 -78 0
78 -76 0
-87 -30 0
-87 80 0
79 -38 0
47 48 69 -33 0
-36 -22 0
-36 -6 0
-30 -36 0
-36 -28 0
-36 -45 0
-36 -27 0
79 -81 0
-68 82 83 0
-36 -80 0
-56 -65 0
-36 -56 0
-30 -65 0
4 -42 0
42 -4 0
69 -74 0
69 -41 0
78 -72 0
23 -37 0
37 -23 0
-19 -26 0
87 57 -31 0
87 60 -86 0
47 48 69 -35 0
-34 -24 0
-34 -28 0
67 -60 0
-87 45 0
33 -48 0
75 -56 72 40 0
-12 44 0
35 -48 0
-37 -5 0
-87 -48 0
-83 85 0
-82 85 0
-78 21 0
78 -21 0
86 -60 0
32 -70 0
65 -70 0
70 -65 -32 0
2 -51 0
34 -51 0
55 -51 0
65 36 -51 0
-2 51 -34 -36 -55 0
-2 51 -34 -65 -55 0
-77 -78 0
-77 -36 0
-77 -65 0
65 36 78 87 57 0
-36 -57 0
-36 -65 0
-78 -36 0
-87 -36 0
-65 -57 0
-78 -57 0
-87 -57 0
-78 -65 0
-87 -65 0
-78 -87 0
78 -15 0
84 -15 0
25 -15 0
15 -78 -84 -25 0
-47 -69 0
-47 -48 0
36 -9 0
25 -9 0
59 -9 0
9 -36 -25 -59 0
20 39 0
-20 -39 0
-43 -78 0
-43 -36 0
-43 -65 0
78 -64 0
42 -64 0
4 -64 0
67 -64 0
64 -78 -4 -42 -67 0
57 -18 0
58 -18 0
46 -18 0
18 -57 -58 -46 0
-79 -36 0
-79 -65 0
-79 -26 0
65 -10 0
59 -10 0
26 -10 0
10 -65 -26 -59 0
35 -69 0
33 -69 0
41 -69 0
67 -62 0
37 -62 0
23 -62 0
87 57 -62 0
-87 62 -23 -37 -67 0
62 -23 -37 -57 -67 0
-69 -48 0
34 -63 0
78 -63 0
3 -63 0
67 -63 0
-34 -3 -78 63 -67 0
84 59 58 0
-59 -58 0
-84 -58 0
-84 -59 0
87 -75 0
79 -75 0
56 -75 0
-79 -87 75 -56 0
2 -61 0
34 -61 0
67 -61 0
87 57 -61 0
-2 -34 -87 61 -67 0
-2 -34 61 -57 -67 0
65 -11 0
25 -11 0
59 -11 0
11 -65 -25 -59 0
15 9 18 10 11 8 16 12 17 13 14 0
-9 -8 0
-10 -8 0
-11 -8 0
-8 -12 0
-8 -13 0
-8 -14 0
-15 -8 0
-16 -8 0
-8 -17 0
-18 -8 0
-9 -10 0
-9 -11 0
-9 -12 0
-9 -13 0
-9 -14 0
-15 -9 0
-9 -16 0
-9 -17 0
-9 -18 0
-10 -11 0
-10 -12 0
-10 -13 0
-10 -14 0
-15 -10 0
-10 -16 0
-10 -17 0
-18 -10 0
-11 -12 0
-11 -13 0
-11 -14 0
-15 -11 0
-11 -16 0
-11 -17 0
-18 -11 0
-12 -13 0
-12 -14 0
-15 -12 0
-16 -12 0
-12 -17 0
-18 -12 0
-13 -14 0
-15 -13 0
-16 -13 0
-17 -13 0
-18 -13 0
-15 -14 0
-16 -14 0
-17 -14 0
-18 -14 0
-15 -16 0
-15 -17 0
-15 -18 0
-16 -17 0
-18 -16 0
-18 -17 0
25 46 26 0
-26 -25 0
-25 -46 0
-26 -46 0
-36 -35 0
-35 -65 0
65 -16 0
84 -16 0
25 -16 0
16 -65 -84 -25 0
-36 -66 0
-65 -66 0
-36 -74 0
-65 -74 0
-74 -57 0
36 -8 0
59 -8 0
26 -8 0
-36 8 -26 -59 0
77 -87 0
43 -87 0
-87 86 0
-87 31 0
51 64 62 63 61 52 49 50 53 54 0
-50 -49 0
-51 -49 0
-49 -52 0
-53 -49 0
-54 -49 0
-61 -49 0
-62 -49 0
-63 -49 0
-64 -49 0
-51 -50 0
-50 -52 0
-50 -53 0
-54 -50 0
-61 -50 0
-62 -50 0
-63 -50 0
-64 -50 0
-51 -52 0
-51 -53 0
-51 -54 0
-51 -61 0
-51 -62 0
-51 -63 0
-51 -64 0
-53 -52 0
-54 -52 0
-61 -52 0
-62 -52 0
-63 -52 0
-64 -52 0
-54 -53 0
-61 -53 0
-62 -53 0
-63 -53 0
-64 -53 0
-61 -54 0
-62 -54 0
-63 -54 0
-64 -54 0
-62 -61 0
-63 -61 0
-64 -61 0
-62 -63 0
-64 -62 0
-64 -63 0
87 -12 0
25 -12 0
59 -12 0
-87 12 -25 -59 0
-78 -30 0
-78 -28 0
-78 -27 0
-78 -24 0
47 -82 0
57 -82 0
68 -82 0
45 -82 0
-36 -41 0
-65 -41 0
55 67 0
-55 -67 0
57 -83 0
69 -83 0
68 -83 0
45 -83 0
-79 38 0
-79 81 0
79 -38 -81 0
55 -54 0
78 -54 0
42 -54 0
4 -54 0
-78 -4 -42 54 -55 0
57 -40 0
56 -40 0
78 -73 0
76 -73 0
80 -73 0
87 -17 0
84 -17 0
25 -17 0
-87 17 -84 -25 0
2 3 4 23 0
-2 -3 0
-2 -4 0
-2 -23 0
-3 -4 0
-3 -23 0
-4 -23 0
77 -57 0
43 -57 0
79 -57 0
31 -57 0
55 -50 0
37 -50 0
23 -50 0
87 57 -50 0
-87 50 -23 -37 -55 0
50 -23 -37 -57 -55 0
34 -53 0
55 -53 0
78 -53 0
3 -53 0
-34 -3 -78 53 -55 0
-36 -86 0
-65 -86 0
30 22 6 28 27 24 1 5 7 29 0
-5 -1 0
-6 -1 0
-1 -7 0
-22 -1 0
-24 -1 0
-27 -1 0
-28 -1 0
-1 -29 0
-30 -1 0
-6 -5 0
-5 -7 0
-22 -5 0
-24 -5 0
-27 -5 0
-28 -5 0
-5 -29 0
-30 -5 0
-6 -7 0
-22 -6 0
-6 -24 0
-6 -27 0
-6 -28 0
-6 -29 0
-30 -6 0
-22 -7 0
-24 -7 0
-27 -7 0
-28 -7 0
-7 -29 0
-30 -7 0
-22 -24 0
-22 -27 0
-22 -28 0
-22 -29 0
-30 -22 0
-27 -24 0
-28 -24 0
-24 -29 0
-30 -24 0
-28 -27 0
-27 -29 0
-30 -27 0
-28 -29 0
-30 -28 0
-30 -29 0
78 -13 0
59 -13 0
26 -13 0
-78 13 -26 -59 0
2 -49 0
34 -49 0
55 -49 0
87 57 -49 0
-2 -34 -87 49 -55 0
-2 -34 49 -57 -55 0
-69 -36 0
-69 -65 0
56 -72 0
-72 60 0
78 -14 0
25 -14 0
59 -14 0
-78 14 -25 -59 0
78 -71 0
25 -71 0
45 -71 0
-78 -45 71 -25 0
55 -52 0
65 36 -52 0
37 -52 0
23 -52 0
-36 52 -23 -37 -55 0
-65 52 -23 -37 -55 0
-36 -60 0
-65 -60 0
-34 -28 -60 0
-34 -28 -24 -60 0
-34 -28 -60 -5 0
-34 -28 -37 -60 0
-34 -37 -24 -60 0
-34 -37 -60 -5 0
-34 -24 -60 0
-34 -24 -60 -5 0
-34 -28 -24 -60 -5 0
-34 -28 -37 -24 -60 0
-34 -37 -24 -60 -5 0
-34 -28 -37 -60 -5 0
-34 -28 -37 -24 -60 -5 0
-37 -60 -5 0
-28 -37 -60 -5 0
-37 -24 -60 -5 0
-28 -37 -24 -60 -5 0
34 42 37 0
-34 -37 0
-34 -42 0
-42 -37 0